25
25
1
3
3600
626 648 675 688 728 850 1145 1182 1474 1529 1572 1602 1660 1921 1995 2039 2183 2197 2352 2383 2434 2599 2733 2758 2765 
14 26 31 18 10 24 17 9 9 38 34 22 23 20 20 31 15 11 15 10 9 28 27 29 40 
